c User generated cnf file
p cnf 9 35
6 -9 7 0 
2 2 -2 0 
5 4 -5 0 
1 -5 5 0 
5 -4 7 0 
7 1 -9 0 
7 -4 6 0 
6 -5 1 0 
9 -6 6 0 
8 -2 4 0 
6 6 -7 0 
2 6 -7 0 
5 3 -4 0 
2 8 -7 0 
6 1 -1 0 
9 -7 1 0 
8 3 -7 0 
5 8 -3 0 
8 -1 3 0 
5 -2 3 0 
3 -5 9 0 
5 6 -2 0 
9 2 -2 0 
9 -7 8 0 
2 -1 2 0 
6 -9 8 0 
6 -3 3 0 
3 4 -7 0 
6 -9 6 0 
6 6 -6 0 
1 -8 4 0 
3 -3 4 0 
7 8 -1 0 
1 -4 1 0 
1 9 -1 0 
